0 111 
1 108 
2 111 
3 108 
4 106 
5 105 
6 107 
7 104 
8 104 
9 105 
10 100 
11 103 
12 106 
13 99 
14 99 
15 99 
16 101 
17 96 
18 94 
19 89 
20 90 
21 91 
22 89 
23 86 
24 84 
25 84 
26 81 
27 80 
28 77 
29 77 
30 76 
31 77 
32 78 
33 77 
34 74 
35 72 
36 69 
37 68 
38 68 
39 71 
40 69 
41 66 
42 63 
43 62 
44 57 
45 54 
46 57 
47 59 
48 58 
49 57 
50 56 
51 55 
52 54 
53 51 
54 47 
55 47 
56 45 
57 46 
58 43 
59 40 
60 38 
61 39 
62 36 
63 38 
64 37 
65 36 
66 35 
67 33 
68 32 
69 27 
70 24 
71 23 
72 22 
73 20 
74 18 
75 16 
76 14 
77 14 
78 15 
79 15 
80 14 
81 11 
82 8 
83 7 
84 8 
85 3 
86 2 
87 2 
88 1 
89 1 
90 2 
91 0 
92 0 

